nbObj= 100;
Capacity= 2562;
Profit =[ 51,4,4,64,72,17,76,62,46,9,82,12,26,63,63,42,63,22,10,70,22,63,26,1,30,62,95,97,88,88,89,15,26,21,20,72,76,90,9,28,99,52,18,17,60,7,38,51,61,54,12,25,10,44,57,8,63,52,59,85,77,18,68,80,42,59,61,44,98,40,9,12,9,51,84,89,30,77,29,76,93,75,18,23,8,72,12,86,98,91,76,44,89,6,28,39,15,24,34,2];
Weight =[ 85,57,65,53,86,78,41,53,6,88,87,35,63,17,26,14,45,18,85,33,86,97,24,23,9,63,26,72,12,50,82,3,36,87,90,94,34,53,91,90,41,46,49,5,57,48,73,15,71,32,25,39,15,18,71,7,11,81,69,70,43,66,20,28,85,5,84,70,87,6,99,71,64,20,88,12,58,49,56,70,35,53,70,67,14,16,83,72,89,33,80,57,20,18,81,20,65,84,46,41];
